
******************************************************************************
This program contains Ipopt, a library for large-scale nonlinear optimization.
 Ipopt is released as open source code under the Eclipse Public License (EPL).
         For more information visit http://projects.coin-or.org/Ipopt

This version of Ipopt was compiled from source code available at
    https://github.com/IDAES/Ipopt as part of the Institute for the Design of
    Advanced Energy Systems Process Systems Engineering Framework (IDAES PSE
    Framework) Copyright (c) 2018-2019. See https://github.com/IDAES/idaes-pse.

This version of Ipopt was compiled using HSL, a collection of Fortran codes
    for large-scale scientific computation.  All technical papers, sales and
    publicity material resulting from use of the HSL codes within IPOPT must
    contain the following acknowledgement:
        HSL, a collection of Fortran codes for large-scale scientific
        computation. See http://www.hsl.rl.ac.uk.
******************************************************************************

This is Ipopt version 3.13.2, running with linear solver ma27.

Number of nonzeros in equality constraint Jacobian...:    17568
Number of nonzeros in inequality constraint Jacobian.:        0
Number of nonzeros in Lagrangian Hessian.............:     1812

Total number of variables............................:     4077
                     variables with only lower bounds:     1812
                variables with lower and upper bounds:      302
                     variables with only upper bounds:        0
Total number of equality constraints.................:     3977
Total number of inequality constraints...............:        0
        inequality constraints with only lower bounds:        0
   inequality constraints with lower and upper bounds:        0
        inequality constraints with only upper bounds:        0

iter    objective    inf_pr   inf_du lg(mu)  ||d||  lg(rg) alpha_du alpha_pr  ls
   0 -9.9999900e-03 9.90e-01 2.00e+00  -1.0 0.00e+00    -  0.00e+00 0.00e+00   0
   1 -1.5495851e-03 8.05e-01 1.44e+02  -1.0 9.90e-01    -  1.10e-02 1.87e-01f  1
   2 -9.0710096e-04 7.25e-01 1.01e+02  -1.0 1.20e+00    -  4.05e-02 9.96e-02f  1
   3 -6.0981386e-04 6.99e-01 2.20e+02  -1.0 1.34e+00    -  1.39e-01 3.57e-02f  1
   4  1.2644406e-03 5.49e-01 1.61e+03  -1.0 9.67e-01    -  2.27e-01 2.15e-01f  1
   5  2.2988618e-03 4.29e-01 1.47e+04  -1.0 7.02e-01    -  4.63e-01 2.19e-01f  1
   6  7.2957834e-03 1.22e-01 5.68e+04  -1.0 1.84e+00    -  2.48e-01 7.16e-01h  1
   7  1.9241699e-02 7.12e-02 5.27e+04  -1.0 2.65e+00    -  2.77e-02 4.15e-01f  1
   8  2.6658161e-02 4.32e-02 2.87e+04  -1.0 2.91e+00    -  5.44e-01 3.92e-01h  1
   9  5.1228056e-02 2.47e-02 1.90e+04  -1.0 7.51e+00    -  1.80e-01 4.54e-01H  1
iter    objective    inf_pr   inf_du lg(mu)  ||d||  lg(rg) alpha_du alpha_pr  ls
  10  9.7994137e-02 5.38e-02 1.21e+04  -1.0 9.86e+00    -  3.21e-01 4.13e-01f  2
  11  3.5518111e-01 1.20e-01 3.52e+04  -1.0 1.58e+01    -  1.21e-01 8.38e-01H  1
  12  4.2663150e-01 9.06e-02 2.44e+04  -1.0 5.85e+00  -2.0 1.51e-01 2.57e-01f  2
  13  5.5235578e-01 8.59e-02 8.92e+03  -1.0 2.15e+01    -  3.09e-01 8.03e-01H  1
  14  6.3416279e-01 1.59e-02 1.42e+03  -1.0 3.36e+01    -  8.37e-01 1.00e+00f  1
  15  8.6310011e-01 3.89e-03 5.18e+03  -1.0 2.85e+02    -  2.92e-01 1.00e+00H  1
  16  8.9589847e-01 1.21e-03 2.17e+03  -1.0 3.69e+02    -  6.19e-01 1.00e+00f  1
  17  9.0165955e-01 1.94e-04 5.61e+03  -1.0 1.01e+03    -  4.12e-01 1.00e+00h  1
  18  9.3662863e-01 4.41e-05 1.45e+04  -1.0 1.30e+03    -  2.79e-01 8.38e-01H  1
  19  9.3101198e-01 5.06e-05 6.71e+03  -1.0 2.24e+03    -  4.23e-01 1.00e+00f  1
iter    objective    inf_pr   inf_du lg(mu)  ||d||  lg(rg) alpha_du alpha_pr  ls
  20  9.2898708e-01 2.53e-05 1.02e+03  -1.0 4.58e+03    -  8.47e-01 1.00e+00h  1
  21  9.3745242e-01 2.40e-05 4.59e+03  -1.0 2.17e+04    -  1.66e-01 1.06e-01h  4
  22  9.3894515e-01 2.06e-05 4.70e+03  -1.0 4.26e+04    -  3.34e-01 1.00e+00f  1
  23  9.4013748e-01 3.74e-05 4.70e+03  -1.0 6.96e+04    -  4.84e-01 1.00e+00f  1
  24  9.4130241e-01 5.50e-05 7.02e+03  -1.0 1.66e+05    -  6.64e-01 1.00e+00f  1
  25  9.4330544e-01 5.36e-05 1.33e+04  -1.0 1.41e+05    -  2.28e-01 2.67e-02h  6
  26  9.4587955e-01 5.20e-05 1.72e+04  -1.0 1.42e+05    -  1.35e-01 2.82e-02h  6
  27  9.4689201e-01 5.58e-05 1.17e+04  -1.0 4.55e+05    -  2.24e-01 1.00e+00f  1
  28  9.4794854e-01 4.11e-05 3.35e+03  -1.0 5.51e+05    -  5.22e-01 1.00e+00f  1
  29  9.5037438e-01 4.00e-05 1.29e+04  -1.0 5.66e+05    -  2.85e-01 2.78e-02h  6
iter    objective    inf_pr   inf_du lg(mu)  ||d||  lg(rg) alpha_du alpha_pr  ls
  30  9.5134828e-01 3.46e-05 3.77e+02  -1.0 8.34e+05    -  9.70e-01 1.00e+00f  1
  31  9.5363312e-01 3.36e-05 1.67e+04  -1.0 8.14e+05    -  4.45e-01 2.74e-02h  6
  32  9.5537154e-01 3.31e-05 4.43e+04  -1.0 5.36e+04    -  7.06e-01 1.54e-02h  7
  33  9.5716243e-01 1.37e-05 4.47e-02  -1.0 5.85e+05    -  1.00e+00 1.00e+00H  1
  34  8.4705178e-01 1.44e-03 1.44e+05  -3.8 2.33e+06    -  7.80e-02 5.57e-01f  1
  35  6.9177538e-01 1.33e-02 7.38e+04  -3.8 3.20e+05    -  2.39e-02 7.81e-01f  1
  36  6.0191729e-01 9.66e-03 4.34e+04  -3.8 1.12e+05    -  3.47e-01 5.87e-01h  1
  37  5.1914982e-01 6.71e-03 2.13e+04  -3.8 4.61e+03    -  1.49e-01 5.64e-01h  1
  38  5.1587164e-01 6.67e-03 4.01e+04  -3.8 6.98e+05    -  1.76e-03 5.44e-03h  1
  39  4.2667300e-01 7.38e-03 2.03e+05  -3.8 6.65e+05    -  3.20e-02 2.47e-01f  1
iter    objective    inf_pr   inf_du lg(mu)  ||d||  lg(rg) alpha_du alpha_pr  ls
  40  4.2700480e-01 7.38e-03 2.02e+05  -3.8 8.72e+03    -  1.15e-03 1.14e-03h  1
  41  4.8955816e-01 7.26e-03 5.85e+05  -3.8 8.73e+03    -  1.10e-01 1.47e-01h  1
  42  3.5927281e-01 9.50e-03 5.72e+05  -3.8 8.13e+04    -  3.68e-03 8.98e-01f  1
  43  3.2204122e-01 4.75e-02 5.05e+05  -3.8 1.40e+01  -2.5 1.14e-01 1.87e-01f  1
  44  3.3943375e-01 4.08e-02 4.81e+05  -3.8 1.99e+00  -1.1 4.42e-02 2.39e-01h  1
  45  2.8903775e-01 1.94e-02 3.49e+06  -3.8 6.43e+05    -  3.57e-03 5.17e-01f  1
  46  2.8941886e-01 1.83e-02 3.37e+06  -3.8 1.47e+04    -  3.59e-01 5.79e-02h  1
  47  2.6604628e-01 5.88e-03 1.03e+06  -3.8 1.31e+04    -  1.77e-01 7.01e-01h  1
  48  2.6601230e-01 5.79e-03 1.02e+06  -3.8 8.29e-02  -0.7 1.69e-04 1.64e-02h  1
  49  2.7073406e-01 3.14e-03 1.79e+06  -3.8 2.12e+05    -  5.97e-01 4.70e-01h  1
iter    objective    inf_pr   inf_du lg(mu)  ||d||  lg(rg) alpha_du alpha_pr  ls
  50  2.2275571e-01 1.91e-02 6.97e+06  -3.8 1.36e+05    -  5.08e-01 2.61e-01f  1
  51  2.2275195e-01 1.82e-02 6.88e+06  -3.8 1.23e-02   2.4 1.27e-02 4.64e-02h  1
  52  2.2274950e-01 1.71e-02 6.83e+06  -3.8 6.25e-03   1.9 8.00e-03 6.32e-02h  1
  53  2.2726972e-01 1.66e-02 7.36e+06  -3.8 9.54e+04    -  1.16e-04 2.63e-02h  5
  54  2.3014482e-01 1.65e-02 6.51e+06  -3.8 9.08e+04    -  5.33e-02 7.26e-03h  5
  55  2.3258585e-01 1.65e-02 6.53e+06  -3.8 8.50e+04    -  4.44e-02 3.42e-03h  6
  56  2.3261778e-01 1.55e-02 6.51e+06  -3.8 1.77e-01   1.5 1.81e-03 6.09e-02h  1
  57  2.3269894e-01 1.28e-02 6.47e+06  -3.8 1.38e-01   2.8 7.05e-03 1.75e-01f  1
  58  2.3283982e-01 2.21e-04 6.30e+06  -3.8 4.31e-02   3.2 2.68e-02 1.00e+00f  1
  59  2.3295551e-01 7.36e-05 5.76e+06  -3.8 8.29e-03   2.7 8.51e-02 7.01e-01h  1
iter    objective    inf_pr   inf_du lg(mu)  ||d||  lg(rg) alpha_du alpha_pr  ls
  60  2.3315914e-01 1.32e-04 5.69e+06  -3.8 2.19e-02   3.2 1.23e-02 1.00e+00h  1
  61  2.3346349e-01 2.98e-05 5.43e+06  -3.8 2.80e-02   2.7 4.65e-02 1.00e+00h  1
  62  2.3346651e-01 2.98e-05 7.99e+07  -3.8 8.80e-01   2.2 2.86e-02 2.04e-03h  1
  63  2.3349130e-01 2.94e-05 3.11e+08  -3.8 1.04e+00   1.7 2.36e-01 1.21e-02h  2
  64  2.3351157e-01 6.25e-05 3.10e+08  -3.8 1.71e-02   4.0 4.47e-04 1.69e-01f  1
  65  2.3889069e-01 4.32e-03 3.09e+08  -3.8 3.59e+00   3.5 4.48e-03 9.48e-02f  1
  66  2.3891850e-01 4.32e-03 3.09e+08  -3.8 2.67e+00   3.0 1.70e-03 3.09e-04h  1
  67  2.3887743e-01 1.40e-04 2.97e+08  -3.8 1.39e-02   3.4 3.75e-02 9.81e-01h  1
  68  2.3886793e-01 1.02e-04 2.80e+08  -3.8 3.98e-03   3.9 5.76e-02 2.63e-01h  1
  69  2.3885145e-01 1.02e-04 1.12e+08  -3.8 1.34e+01   3.4 5.01e-06 6.21e-05h  1
iter    objective    inf_pr   inf_du lg(mu)  ||d||  lg(rg) alpha_du alpha_pr  ls
  70  2.3879388e-01 1.02e-04 3.69e+10  -3.8 1.53e+01   2.9 1.91e-02 1.93e-04h  1
  71  2.3872468e-01 1.02e-04 3.69e+10  -3.8 1.55e+01   2.4 2.60e-04 1.94e-04h  1
  72  2.3854832e-01 1.02e-04 4.52e+10  -3.8 3.74e+01   2.0 2.38e-02 8.75e-05h  1
  73  2.3854844e-01 1.05e-04 4.40e+10  -3.8 1.27e-04   7.8 2.52e-02 4.14e-01f  1
  74  2.3854873e-01 1.04e-04 4.10e+10  -3.8 1.34e-04   7.3 6.88e-02 1.82e-01h  1
  75  2.3854888e-01 9.48e-05 3.87e+10  -3.8 5.91e-05   7.7 5.73e-02 6.34e-01f  1
  76r 2.3854888e-01 9.48e-05 1.00e+03  -3.8 0.00e+00   7.3 0.00e+00 2.73e-07R  2
  77r 2.3825951e-01 9.38e-05 1.35e+03  -3.8 5.34e-01    -  2.00e-01 1.27e-02f  1
  78r 2.3527464e-01 2.09e-04 1.15e+03  -3.8 4.60e-01    -  1.70e-01 1.48e-01f  1
  79r 2.3344435e-01 2.57e-04 1.04e+03  -3.8 2.63e-01    -  1.54e-01 1.75e-01f  1
iter    objective    inf_pr   inf_du lg(mu)  ||d||  lg(rg) alpha_du alpha_pr  ls
  80r 2.3233770e-01 2.35e-04 8.75e+02  -3.8 1.46e-01    -  1.72e-01 1.80e-01f  1
  81r 2.3147616e-01 1.86e-04 5.79e+02  -3.8 7.65e-02    -  3.67e-01 2.48e-01f  1
  82r 2.3101675e-01 1.08e-04 3.94e+02  -3.8 6.82e-02    -  4.20e-01 3.65e-01f  1
  83r 2.3084657e-01 7.60e-05 2.58e+02  -3.8 7.46e-02    -  4.52e-01 2.45e-01f  1
  84  2.3081753e-01 7.46e-05 1.34e+03  -3.8 3.27e-02    -  9.88e-01 1.80e-02h  1
  85  1.8640978e-01 1.71e-02 3.85e+02  -3.8 1.19e+00    -  5.96e-01 1.00e+00f  1
  86  1.7386460e-01 8.58e-03 1.05e+03  -3.8 5.96e-01    -  8.87e-01 4.98e-01h  1
  87  1.0537239e-01 5.37e-03 1.47e+02  -3.8 4.90e+00    -  7.70e-01 1.00e+00f  1
  88  6.2067855e-02 2.92e-03 4.54e+00  -3.8 2.15e+01    -  9.68e-01 1.00e+00h  1
  89  3.1934733e-02 4.31e-03 5.32e-01  -3.8 6.79e+02    -  9.98e-01 1.00e+00h  1
iter    objective    inf_pr   inf_du lg(mu)  ||d||  lg(rg) alpha_du alpha_pr  ls
  90  3.0361972e-02 4.99e-04 3.30e+02  -3.8 3.06e+05    -  8.47e-01 9.43e-01h  1
  91  3.0045368e-02 2.30e-05 1.65e-01  -3.8 1.06e+06    -  1.00e+00 1.00e+00f  1
  92  3.0346502e-02 2.79e-05 1.40e+03  -3.8 6.81e+05    -  6.82e-01 8.83e-01H  1
  93  3.0219771e-02 1.59e-05 1.72e-01  -3.8 1.34e+05    -  1.00e+00 1.00e+00f  1
  94  3.0232127e-02 1.81e-07 5.42e-03  -3.8 1.23e+04    -  1.00e+00 1.00e+00h  1
  95  3.0235782e-02 2.07e-07 1.13e+04  -3.8 5.56e+04    -  1.00e+00 2.88e-02h  6
  96  3.0231921e-02 8.70e-08 3.50e-04  -3.8 4.59e+03    -  1.00e+00 1.00e+00h  1
  97  1.0159557e-02 5.13e-03 3.53e+02  -5.7 5.25e+04    -  7.63e-01 1.00e+00f  1
  98  2.6138064e-03 5.81e-03 5.11e+01  -5.7 1.77e+05    -  8.86e-01 1.00e+00h  1
  99 -1.1530588e-05 3.59e-03 4.00e+01  -5.7 1.23e+06    -  7.83e-01 1.00e+00h  1
iter    objective    inf_pr   inf_du lg(mu)  ||d||  lg(rg) alpha_du alpha_pr  ls
 100 -4.0405208e-04 2.37e-03 1.27e+04  -5.7 5.04e+06    -  7.25e-02 3.96e-01h  1
 101 -8.3405165e-04 8.44e-04 7.78e+03  -5.7 2.46e+06    -  2.47e-01 7.80e-01h  1
 102 -9.9477274e-04 1.32e-04 7.46e+03  -5.7 2.84e+06    -  5.30e-02 1.00e+00f  1
 103 -1.0113938e-03 1.78e-06 3.33e+03  -5.7 2.22e+06    -  3.32e-01 1.00e+00h  1
 104 -1.0153560e-03 2.41e-07 2.94e+03  -5.7 1.48e+06    -  1.12e-01 8.95e-01h  1
 105 -1.0157355e-03 1.75e-07 1.41e+03  -5.7 4.09e+05    -  5.21e-01 3.64e-01f  2
 106 -1.0165291e-03 6.52e-08 1.06e-03  -5.7 3.59e+05    -  1.00e+00 1.00e+00h  1
 107 -1.0166110e-03 8.19e-09 9.69e-05  -5.7 7.06e+04    -  1.00e+00 1.00e+00h  1
 108 -1.5106581e-03 1.31e-03 1.51e+01  -8.6 6.87e+04    -  7.93e-01 9.51e-01h  1
 109 -1.5142682e-03 1.29e-03 5.82e+02  -8.6 1.13e+06    -  6.20e-03 2.12e-02h  1
iter    objective    inf_pr   inf_du lg(mu)  ||d||  lg(rg) alpha_du alpha_pr  ls
 110 -1.5648440e-03 8.32e-04 5.12e+02  -8.6 1.09e+05    -  9.24e-02 4.79e-01h  1
 111 -1.5685701e-03 7.80e-04 1.74e+03  -8.6 1.38e+06    -  8.68e-03 6.43e-02h  1
 112 -1.5802325e-03 5.98e-04 5.04e+03  -8.6 8.94e+05    -  4.71e-03 2.73e-01f  1
 113 -1.5936380e-03 2.71e-04 4.75e+03  -8.6 3.19e+05    -  1.42e-02 8.21e-01h  1
 114 -1.5938408e-03 2.35e-04 4.66e+03  -8.6 1.83e+05    -  1.49e-02 1.39e-01h  1
 115 -1.5940923e-03 2.22e-04 4.55e+03  -8.6 1.61e+05    -  2.17e-02 5.77e-02f  1
 116 -1.5934818e-03 1.89e-04 4.48e+03  -8.6 1.53e+05    -  6.80e-03 1.58e-01h  1
 117 -1.5916971e-03 1.61e-04 4.40e+03  -8.6 1.28e+05    -  5.92e-03 1.61e-01h  1
 118 -1.5900908e-03 1.43e-04 4.32e+03  -8.6 1.05e+05    -  7.30e-03 1.13e-01h  1
 119 -1.5890385e-03 1.34e-04 4.27e+03  -8.6 9.05e+04    -  2.01e-03 6.89e-02h  1
iter    objective    inf_pr   inf_du lg(mu)  ||d||  lg(rg) alpha_du alpha_pr  ls
 120 -1.5866323e-03 1.18e-04 4.20e+03  -8.6 8.21e+04    -  1.33e-03 1.26e-01h  1
 121 -1.5840527e-03 1.05e-04 4.13e+03  -8.6 6.75e+04    -  8.90e-04 1.18e-01h  1
 122 -1.5825142e-03 9.78e-05 4.09e+03  -8.6 5.51e+04    -  6.68e-04 6.67e-02h  1
 123 -1.5752095e-03 7.13e-05 3.91e+03  -8.6 4.87e+04    -  2.77e-03 2.77e-01h  1
 124 -1.5706609e-03 5.42e-05 2.96e+03  -8.6 2.42e+04    -  2.44e-01 2.42e-01h  1
 125 -1.5543054e-03 8.54e-06 2.33e+03  -8.6 7.17e+03    -  2.52e-06 1.00e+00h  1
 126 -1.5913141e-03 4.43e-05 7.35e+02  -8.6 9.69e+04    -  6.38e-01 1.00e+00h  1
 127 -1.5935959e-03 3.98e-05 4.61e+02  -8.6 1.35e+05    -  3.51e-01 1.07e-01h  1
 128 -1.6066152e-03 3.71e-05 3.02e+02  -8.6 1.68e+05    -  3.31e-01 3.44e-01f  1
 129 -1.6094974e-03 2.67e-05 2.12e+02  -8.6 4.69e+04    -  6.21e-01 3.00e-01h  1
iter    objective    inf_pr   inf_du lg(mu)  ||d||  lg(rg) alpha_du alpha_pr  ls
 130 -1.6130109e-03 1.48e-05 1.06e+02  -8.6 5.46e+04    -  7.19e-01 5.01e-01f  1
 131 -1.6152218e-03 8.16e-06 5.29e+01  -8.6 2.21e+05    -  2.94e-01 5.01e-01f  1
 132 -1.6173837e-03 2.97e-06 1.30e+01  -8.6 1.92e+05    -  1.28e-01 7.57e-01f  1
 133 -1.6188294e-03 6.56e-07 2.04e+00  -8.6 1.19e+05    -  4.17e-01 1.00e+00f  1
 134 -1.6191351e-03 4.41e-07 1.41e+00  -8.6 8.40e+04    -  7.79e-01 3.54e-01h  1
 135 -1.6196178e-03 1.30e-07 5.00e-04  -8.6 8.86e+04    -  1.00e+00 1.00e+00f  1
 136 -1.6198520e-03 5.98e-08 1.76e-01  -8.6 1.03e+04    -  1.00e+00 7.14e-01h  1
 137 -1.6199310e-03 4.38e-08 7.03e-01  -8.6 2.96e+03    -  7.25e-01 3.42e-01f  2
 138 -1.6200406e-03 2.58e-09 3.42e+00  -8.6 1.95e+03    -  2.86e-01 1.00e+00h  1
 139 -1.6199708e-03 1.24e-09 5.46e-01  -8.6 8.97e-02    -  6.07e-01 1.00e+00h  1
iter    objective    inf_pr   inf_du lg(mu)  ||d||  lg(rg) alpha_du alpha_pr  ls
 140 -1.6199798e-03 9.31e-10 1.26e-05  -8.6 1.65e-04    -  1.00e+00 1.00e+00h  1
 141 -1.6199794e-03 1.16e-10 2.10e-08  -8.6 6.52e-06    -  1.00e+00 1.00e+00h  1

Number of Iterations....: 141

                                   (scaled)                 (unscaled)
Objective...............:  -1.6199794394695592e-03   -1.6199794394695592e-03
Dual infeasibility......:   2.1031649754074704e-08    2.1031649754074704e-08
Constraint violation....:   1.1641532182693481e-10    1.1641532182693481e-10
Complementarity.........:   2.6095310482947607e-09    2.6095310482947607e-09
Overall NLP error.......:   4.1168831498070102e-09    2.1031649754074704e-08


Number of objective function evaluations             = 230
Number of objective gradient evaluations             = 136
Number of equality constraint evaluations            = 230
Number of inequality constraint evaluations          = 0
Number of equality constraint Jacobian evaluations   = 143
Number of inequality constraint Jacobian evaluations = 0
Number of Lagrangian Hessian evaluations             = 141
Total CPU secs in IPOPT (w/o function evaluations)   =      4.590
Total CPU secs in NLP function evaluations           =      0.246


Timing Statistics:

OverallAlgorithm....................:      4.836 (sys:      0.100 wall:      4.767)
 PrintProblemStatistics.............:      0.000 (sys:      0.000 wall:      0.000)
 InitializeIterates.................:      0.060 (sys:      0.042 wall:      0.026)
 UpdateHessian......................:      0.120 (sys:      0.004 wall:      0.120)
 OutputIteration....................:      0.007 (sys:      0.001 wall:      0.006)
 UpdateBarrierParameter.............:      0.002 (sys:      0.000 wall:      0.002)
 ComputeSearchDirection.............:      4.327 (sys:      0.050 wall:      4.293)
 ComputeAcceptableTrialPoint........:      0.255 (sys:      0.001 wall:      0.254)
 AcceptTrialPoint...................:      0.003 (sys:      0.000 wall:      0.003)
 CheckConvergence...................:      0.061 (sys:      0.002 wall:      0.060)
PDSystemSolverTotal.................:      4.354 (sys:      0.049 wall:      4.320)
 PDSystemSolverSolveOnce............:      4.321 (sys:      0.049 wall:      4.288)
 ComputeResiduals...................:      0.024 (sys:      0.000 wall:      0.024)
 StdAugSystemSolverMultiSolve.......:      4.462 (sys:      0.088 wall:      4.401)
 LinearSystemScaling................:      0.669 (sys:      0.009 wall:      0.676)
 LinearSystemSymbolicFactorization..:      0.023 (sys:      0.019 wall:      0.011)
 LinearSystemFactorization..........:      3.487 (sys:      0.057 wall:      3.433)
 LinearSystemBackSolve..............:      0.257 (sys:      0.003 wall:      0.255)
 LinearSystemStructureConverter.....:      0.000 (sys:      0.000 wall:      0.000)
  LinearSystemStructureConverterInit:      0.000 (sys:      0.000 wall:      0.000)
QualityFunctionSearch...............:      0.000 (sys:      0.000 wall:      0.000)
TryCorrector........................:      0.000 (sys:      0.000 wall:      0.000)
Task1...............................:      0.000 (sys:      0.000 wall:      0.000)
Task2...............................:      0.000 (sys:      0.000 wall:      0.000)
Task3...............................:      0.000 (sys:      0.000 wall:      0.000)
Task4...............................:      0.000 (sys:      0.000 wall:      0.000)
Task5...............................:      0.000 (sys:      0.000 wall:      0.000)
Function Evaluations................:      0.246 (sys:      0.006 wall:      0.244)
 Objective function.................:      0.004 (sys:      0.000 wall:      0.004)
 Objective function gradient........:      0.002 (sys:      0.000 wall:      0.002)
 Equality constraints...............:      0.068 (sys:      0.001 wall:      0.066)
 Inequality constraints.............:      0.000 (sys:      0.000 wall:      0.000)
 Equality constraint Jacobian.......:      0.048 (sys:      0.002 wall:      0.047)
 Inequality constraint Jacobian.....:      0.000 (sys:      0.000 wall:      0.000)
 Lagrangian Hessian.................:      0.124 (sys:      0.004 wall:      0.124)

EXIT: Optimal Solution Found.
